6 10 4 15 18 14 5 8 17 12 9 19 11 7 2 1 0 13 16 3  
6 10 4 15 18 14 17 8 12 0 11 9 19 16 5 2 7 3 1 13  
10 6 15 4 11 14 8 17 12 9 18 19 16 5 0 13 2 3 1 7  
10 6 15 4 8 11 17 12 9 14 18 19 16 5 0 1 7 3 2 13  
10 6 15 4 18 14 17 8 12 0 11 9 19 16 5 2 13 7 3 1  
10 6 15 4 18 14 8 17 12 9 19 11 16 5 0 1 2 7 3 13  
10 6 15 4 11 14 8 17 12 9 18 19 16 5 0 1 7 13 2 3  
10 6 15 4 18 14 8 17 12 0 11 19 16 5 9 13 2 1 7 3  
4 10 6 18 15 11 17 8 14 12 5 9 19 7 1 0 2 13 16 3  
10 6 15 4 18 14 11 8 17 12 9 19 16 5 0 13 2 1 7 3  
10 6 15 4 18 14 8 17 12 0 11 19 16 5 9 13 2 1 7 3  
10 6 15 4 18 14 8 17 12 9 19 11 16 5 0 2 7 3 1 13  
10 6 15 4 18 14 8 17 12 9 11 19 16 5 0 1 2 7 3 13  
10 6 15 4 18 14 11 17 12 8 9 19 16 5 0 1 7 13 2 3  
6 10 4 15 18 11 17 8 14 12 5 9 19 7 1 0 2 13 16 3  
10 6 15 4 11 14 8 17 12 9 18 19 5 0 1 13 2 16 7 3  
10 6 15 4 18 14 8 17 12 9 19 16 11 5 0 13 2 1 7 3  
10 6 15 4 18 14 8 17 12 9 19 11 16 5 0 2 7 3 1 13  
10 6 15 4 18 14 8 17 12 9 19 16 11 5 0 13 2 1 7 3  
10 6 15 4 18 14 8 11 17 12 9 19 16 5 7 0 1 13 2 3  
10 6 15 4 11 14 8 0 12 9 18 19 16 5 17 1 7 2 13 3  
10 6 18 15 4 14 8 17 12 9 11 19 16 5 0 1 7 2 13 3  
10 6 11 4 18 14 8 15 17 12 9 19 16 5 7 1 0 13 2 3  
10 6 15 4 18 14 7 8 11 0 12 9 13 16 5 2 17 1 19 3  
10 6 15 4 18 14 7 8 11 17 12 9 19 5 2 0 1 13 16 3  
10 6 15 4 18 14 8 17 12 9 11 19 16 5 7 1 0 13 2 3  
6 10 4 15 18 11 17 8 14 12 5 9 19 7 2 0 1 13 16 3  
10 6 15 4 18 11 17 8 14 12 5 9 19 2 7 1 0 13 16 3  
10 6 15 4 18 14 8 17 12 9 19 11 16 5 0 2 13 7 3 1  
10 6 15 4 11 14 8 17 12 9 18 19 16 5 0 13 3 1 7 2  
10 6 15 4 11 14 8 17 12 9 18 19 5 0 1 13 7 16 2 3  
10 6 15 18 4 14 8 11 17 12 0 19 16 5 9 13 7 3 1 2  
10 6 15 4 18 14 7 8 11 17 12 9 19 16 5 0 2 3 1 13  
10 6 15 4 18 14 8 17 12 9 11 19 16 5 0 2 7 3 1 13  
10 6 15 4 18 14 8 17 12 9 19 16 11 5 0 2 13 1 7 3  
4 10 6 15 18 14 5 8 17 12 9 11 19 7 2 1 0 13 16 3  
10 6 15 4 18 14 11 8 17 12 9 19 16 5 0 13 2 3 1 7  
10 6 15 4 18 14 8 11 17 12 0 19 16 5 9 13 2 1 7 3  
10 6 15 4 18 14 11 8 17 12 9 19 16 5 0 13 2 3 1 7  
